Maximize
  1478.43778781891 I0(7) + 2815.56188222249 I1(13) + 3349.48454032186 I2(13)
   - 120.2745870439 I3(1) + 2836.65392103875 I4(13)
   + 955.6255288482299 I5(6) + 1039.58408763971 I6(6)
   + 949.624221596973 I7(7) + 1797.78612185517 I8(10)
   + 1178.0187392124 I9(8) + 1882.43576902386 I10(10)
   + 156.2467753327 I11(4) + 1005.191071837003 I12(5)
   + 351.6718326092 I13(5) + 1830.96954675555 I14(12)
   + 892.8165377568703 I15(10) + 1065.9949297417 I16(6)
   + 1682.31737906512 I17(9) + 401.5503135382301 I18(6)
   + 2082.78973584894 I19(10) + 525.544309561393 I20(6)
   + 717.9517451893799 I21(6) + 651.0541162596701 I22(7)
   + 1131.795486684243 I23(7) + 1377.83540719609 I24(10)
   + 1651.783004547423 I25(8) + 665.5862021530701 I26(6)
   + 377.8065722810801 I27(8) + 1186.52593197567 I28(8)
   + 898.9250652878001 I29(4) + 1191.086922472763 I30(9)
   + 575.0264292423701 I31(7) + 220.6901762949 I32(4)
   + 1277.366696171603 I33(11) + 1679.379979735263 I34(8)
   + 820.71819723154 I35(3) + 644.9356252556299 I36(6)
   + 197.53348786258 I37(5) + 563.80739763896 I38(4)
   + 2283.04897469086 I39(8) + 487.53601348831 I40(4)
   + 557.14272034459 I41(6) + 914.8749207236898 I42(4)
   + 815.0735853708101 I43(6) + 3408.87146156855 I44(15)
   - 80.05187012979999 I45(1) + 2579.63503072984 I46(14)
   + 2290.34520395181 I47(16) + 2216.93487891665 I48(12)
   + 2286.19550476281 I49(17) + 2293.237539396794 I50(14)
   + 1502.903765685933 I51(12) + 1021.02033993715 I52(4)
   + 773.3498210074702 I53(4) + 1686.71959118468 I54(14)
   + 1698.32523743739 I55(11) + 2191.74176101118 I56(9)
   + 1087.87893795137 I57(4) + 1255.51044194262 I58(8)
   + 1201.20043549805 I59(8) + 468.44741261005 I60(5)
   + 1242.97257890519 I61(8) + 284.9346910688 I62(5)
   + 151.02928619585 I63(4) + 807.0673498195799 I64(9)
   + 1415.09988805559 I65(9) + 195.97362614722 I66(3)
   + 905.40894685774 I67(6) + 607.75422213634 I68(4)
   + 202.80316845322 I69(3) + 229.6727737295199 I70(4)
   + 1066.30511212393 I71(8) + 735.81426292826 I72(6)
   + 430.43343673684 I73(8) + 967.7144099151799 I74(8)
   + 1436.74204157706 I75(9) + 782.24163388076 I76(5)
   + 1200.7607920167 I77(9) + 319.6563398371201 I78(4)
   + 1216.954622474983 I79(7) + 1312.08347916818 I80(11)
   + 76.75445725122999 I81(3) + 228.60225686767 I82(3)
   + 86.1976842059 I83(2) + 338.72599238712 I84(3)
   + 1237.43926220571 I85(9) + 112.37103385993 I86(3)
   + 525.1458919854101 I87(5) + 950.93686950386 I88(8)
   + 2579.12118910738 I89(17) + 2621.71114947588 I90(17)
   - 57.24014753978 I91(1) + 2275.949909826109 I92(14)
   + 1381.3412998733 I93(11) + 1264.01425509378 I94(8)
   + 827.3264985844899 I95(4) + 587.18521899518 I96(7)
   + 639.8664950103 I97(4) + 466.3112703657101 I98(5)
   + 243.6338916073 I99(4) + 1228.35652860785 I100(8)
   + 353.3889639308001 I101(2) + 828.2021072557002 I102(6)
   + 1316.79555830432 I103(12) + 611.9248540605399 I104(4)
   + 1475.95678725187 I105(8) + 1174.94228559191 I106(8)
   + 201.29118754372 I107(3) + 555.93485621689 I108(4)
   + 196.72808034373 I109(3) + 1844.90797833858 I110(12)
   + 1372.18906778898 I111(11) + 2132.24476545616 I112(14)
   + 388.6826684603001 I113(3) + 1865.10236744231 I114(9)
   + 1009.64807313662 I115(9) + 139.54393658116 I116(3)
   + 14.55586534515 I117(2) + 914.9017306836931 I118(8)
   + 1916.84761680169 I119(12) + 457.4845511970501 I120(6)
   + 618.84666938612 I121(5) + 2407.11604059408 I122(12)
   + 1426.64835084733 I123(10) + 1263.44675220462 I124(10)
   + 854.5547186377098 I125(6) + 2700.561406104983 I126(14)
   + 3210.613482286353 I127(14) - 75.4930744432 I128(1)
   + 1565.198098075733 I129(14) + 2019.254106800659 I130(10)
   + 1754.963112602613 I131(15) + 1804.763079591493 I132(12)
   + 1140.60740062561 I133(9) + 847.78442640447 I134(11)
   + 1201.46950588716 I135(11) + 2099.107129640443 I136(10)
   + 1219.343733424643 I137(8) + 2712.62254297464 I138(11)
   + 893.90870258682 I139(9) + 793.9595127181299 I140(8)
   + 1771.91744188834 I141(7) + 831.3241342787499 I142(9)
   + 1177.03556131277 I143(8) + 249.71662210984 I144(4)
   + 473.5174818901 I145(7) + 1653.510370093213 I146(10)
   + 485.46336683307 I147(5) + 2070.79643484357 I148(10)
   + 516.18527390722 I149(6) + 780.2574997258232 I150(10)
   + 684.8103406395601 I151(9) + 877.23258230432 I152(5)
   + 666.3470664082899 I153(7) + 372.0491487331599 I154(5)
   + 516.8276418353901 I155(7) + 2063.910474576803 I156(11)
   + 1455.484185980223 I157(9) + 2318.984505701853 I158(12)
   + 1164.21745132285 I159(8) + 1620.03075915219 I160(8)
   + 2367.08233075568 I161(12) + 1654.98145950746 I162(9)
   + 2433.82184898954 I163(9) + 1847.90166861927 I164(9)
   + 634.0284498393901 I165(6) + 1333.12680668344 I166(6)
   + 1083.6505074925 I167(8) + 3045.812836002719 I168(17)
   + 3458.449887359919 I169(17) - 84.8612857225 I170(1)
   + 2797.45800160098 I171(14) + 2237.068427259429 I172(17)
   + 1993.609230444823 I173(18) + 1717.942237032483 I174(13)
   + 1313.56852339998 I175(9) + 944.94130995403 I176(10)
   + 1649.38562230287 I177(14) + 694.0691023199729 I178(7)
   + 905.9774993116 I179(5) + 233.01172975951 I180(4)
   + 1206.88576046851 I181(8) + 1640.35211522528 I182(11)
   + 1722.98348207066 I183(12) + 1851.788354027911 I184(15)
   + 1565.93726435368 I185(12) + 454.36600594388 I186(6)
   + 873.522102542353 I187(8) + 2480.291600379669 I188(15)
   + 2103.064809058183 I189(15) + 637.533801935243 I190(9)
   + 1984.94841707245 I191(12) + 1135.83334210817 I192(11)
   + 1908.79457954513 I193(11) + 1890.08868136617 I194(12)
   + 2201.555921730033 I195(11) + 928.5313403309032 I196(11)
   + 1186.34566286091 I197(11) + 1048.21171965293 I198(11)
   + 578.16492545931 I199(8) + 584.9214190215499 I200(9)
   + 2690.74160262228 I201(16) + 1272.39483353255 I202(7)
   + 1629.68905222742 I203(6) + 1839.05005558374 I204(12)
   + 1845.130709260643 I205(9) + 1331.09359350179 I206(8)
   + 1138.95946882798 I207(10) + 979.0490756087997 I208(9)
   + 983.9389928545702 I209(8) + 910.83764611206 I210(8)
   + 2942.91848781121 I211(13) + 380.42989317275 I212(5)
   + 3417.82891657318 I213(16) + 3476.25776159489 I214(16)
   - 86.602986014 I215(1) + 2686.71780318395 I216(14)
   + 2153.725873229371 I217(15) + 2322.90137734998 I218(14)
   + 2045.460265621364 I219(18) + 2044.63930628627 I220(11)
   + 1482.66816513242 I221(11) + 2503.83411318391 I222(10)
   + 1013.28016235981 I223(7) + 1076.57728805311 I224(9)
   + 264.88025061658 I225(6) + 580.08038042107 I226(5)
   + 1061.29144330976 I227(5) + 911.5561126777601 I228(7)
   + 1594.92496881509 I229(11) + 53.8290993606 I230(2)
   + 1160.56998055628 I231(6) + 1598.88492410541 I232(9)
   + 1609.05838776106 I233(7) + 62.27346303633999 I234(2)
   + 1468.4491729206 I235(11) + 180.94613562327 I236(3)
   + 1740.21864593551 I237(9) + 862.9970321445098 I238(10)
   + 1526.66750702446 I239(9) + 784.5174649624499 I240(5)
   + 557.3124897713999 I241(5) + 1534.00815499927 I242(10)
   + 906.6501374676902 I243(7) + 671.52282357801 I244(6)
   + 98.01044290856998 I245(2) + 300.74291330341 I246(5)
   + 407.85012949676 I247(4) + 834.92049736174 I248(7)
   + 1252.556453572621 I249(10) + 188.93190795098 I250(4)
   + 966.1825044698102 I251(5) + 1819.29294689708 I252(7)
   + 889.1294617519302 I253(7) + 1033.76451272133 I254(6)
   + 3412.05357575612 I255(16) + 3473.318752133509 I256(16)
   - 58.0279050119 I257(1) + 2684.98964328574 I258(14)
   + 1110.2622380007 I259(5) + 1744.5851733044 I260(7)
   + 1389.62626674354 I261(4) + 835.6989398094 I262(5)
   + 638.9779824708 I263(2) + 199.18189699 I264(3)
   + 18.18650706730001 I265(2) + 938.2510119518601 I266(7)
   + 431.6629402213601 I267(3) + 345.99438554693 I268(3)
   + 203.5285919945 I269(2) + 17.52468849619999 I270(2)
   + 193.47638955833 I271(3) + 687.3505118412101 I272(3)
   + 2081.7628963172 I273(8) + 189.4898836801 I274(3)
   + 1932.29989062585 I275(9) + 834.6633205839798 I276(8)
   + 381.7256947768001 I277(3) + 90.2666562926 I278(2)
   + 686.2400544977399 I279(6) + 604.3803347468 I280(6)
   + 625.785311916042 I281(6) + 1801.25288499652 I282(6)
   + 538.67626233485 I283(5) + 841.99317233097 I284(3)
   + 769.4038582823499 I285(5)
Subject To
 c0: 6 I1(13) + 6 I2(13) + 6 I8(10) + 6 I9(8) + 6 I10(10) + 6 I16(6)
   + 6 I21(6) + 6 I22(7) + 6 I24(10) + 6 I26(6) + 6 I31(7) + 6 I36(6)
   + 6 I41(6) + 6 I43(6) + 6 I44(15) + 6 I49(17) + 6 I52(4) + 6 I54(14)
   + 6 I59(8) + 6 I74(8) + 6 I75(9) + 6 I77(9) + 6 I85(9) + 6 I87(5)
   + 6 I89(17) + 6 I90(17) + 6 I93(11) + 6 I124(10) + 6 I126(14)
   + 6 I127(14) + 6 I131(15) + 6 I133(9) + 6 I134(11) + 6 I135(11)
   + 6 I141(7) + 6 I168(17) + 6 I169(17) + 6 I173(18) + 6 I175(9)
   + 6 I177(14) + 6 I183(12) + 6 I186(6) + 6 I188(15) + 6 I189(15)
   + 6 I201(16) + 6 I206(8) + 6 I208(9) + 6 I210(8) + 6 I211(13)
   + 6 I213(16) + 6 I214(16) + 6 I219(18) + 6 I221(11) + 6 I222(10)
   + 6 I223(7) + 6 I242(10) + 6 I245(2) + 6 I255(16) + 6 I256(16) <= 6
 c1: 9 I2(13) + 9 I4(13) + 9 I44(15) + 9 I46(14) + 6 I47(16) + 9 I49(17)
   + 9 I50(14) + 6 I51(12) + 9 I53(4) + 6 I55(11) + 9 I57(4) + 9 I71(8)
   + 9 I76(5) + 6 I112(14) + 9 I114(9) + 9 I127(14) + 9 I138(11)
   + 9 I146(10) + 9 I148(10) + 9 I160(8) + 9 I161(12) + 9 I162(9)
   + 9 I163(9) + 9 I164(9) + 9 I166(6) + 9 I169(17) + 9 I171(14)
   + 6 I181(8) + 9 I188(15) + 9 I193(11) + 9 I194(12) + 9 I201(16)
   + 9 I204(12) + 9 I211(13) + 9 I213(16) + 9 I214(16) + 9 I216(14)
   + 9 I220(11) + 9 I222(10) + 9 I227(5) + 9 I254(6) + 9 I255(16)
   + 9 I256(16) + 9 I258(14) + 9 I272(3) + 9 I284(3) <= 9
 c2: 12 I18(6) + 12 I24(10) + 12 I27(8) + 12 I31(7) + 12 I43(6)
   + 12 I44(15) + 12 I46(14) + 12 I47(16) + 12 I48(12) + 12 I49(17)
   + 11 I54(14) + 12 I55(11) + 12 I56(9) + 12 I61(8) + 12 I62(5)
   + 12 I63(4) + 12 I65(9) + 12 I72(6) + 11 I73(8) + 12 I74(8) + 12 I75(9)
   + 12 I77(9) + 12 I80(11) + 12 I81(3) + 12 I85(9) + 12 I86(3) + 12 I87(5)
   + 12 I129(14) + 12 I131(15) + 12 I133(9) + 12 I135(11) + 9 I139(9)
   + 12 I142(9) + 12 I151(9) + 12 I153(7) + 12 I154(5) + 12 I155(7)
   + 12 I168(17) + 12 I169(17) + 12 I171(14) + 12 I172(17) + 12 I173(18)
   + 12 I175(9) + 12 I177(14) + 12 I184(15) + 12 I185(12) + 12 I186(6)
   + 12 I192(11) + 12 I197(11) + 12 I199(8) + 12 I200(9) + 12 I201(16)
   + 12 I204(12) + 12 I216(14) + 12 I217(15) + 12 I219(18) + 12 I221(11)
   + 12 I223(7) + 12 I225(6) + 12 I238(10) + 12 I242(10) + 12 I255(16)
   + 12 I256(16) + 12 I258(14) + 12 I276(8) + 12 I279(6) + 12 I281(6)
   <= 12
 c3: 4 I14(12) + 4 I17(9) + 4 I18(6) + 3 I21(6) + 3 I26(6) + 4 I89(17)
   + 4 I90(17) + 4 I93(11) + 4 I100(8) + 4 I103(12) + 4 I105(8)
   + 4 I110(12) + 4 I111(11) + 3 I115(9) + 3 I120(6) + 4 I168(17)
   + 4 I169(17) + 4 I172(17) + 4 I173(18) + 4 I184(15) + 4 I185(12)
   + 4 I191(12) + 4 I192(11) + 4 I195(11) + 4 I204(12) + 4 I207(10)
   + 4 I210(8) + 4 I211(13) + 4 I213(16) + 4 I214(16) + 4 I217(15)
   + 4 I218(14) + 4 I219(18) + 4 I222(10) + 4 I226(5) + 4 I229(11)
   + 4 I235(11) + 4 I254(6) + 4 I255(16) + 4 I256(16) + 4 I259(5)
   + 4 I266(7) + 4 I273(8) + 4 I275(9) <= 4
 c4: 8 I37(5) + 8 I49(17) + 8 I110(12) + 8 I111(11) + 8 I112(14)
   + 8 I114(9) + 8 I115(9) + 8 I120(6) + 5 I218(14) + 5 I229(11)
   + 8 I250(4) + 8 I254(6) + 5 I255(16) <= 8
 c5: 4 I0(7) + 4 I1(13) + 4 I6(6) + 4 I8(10) + 4 I15(10) + 4 I17(9)
   + 4 I28(8) + 4 I40(4) + 4 I46(14) + 4 I47(16) + 4 I48(12) + 4 I49(17)
   + 4 I50(14) + 4 I51(12) + 4 I54(14) + 4 I58(8) + 4 I64(9) + 4 I71(8)
   + 4 I73(8) + 4 I76(5) + 4 I103(12) + 4 I106(8) + 4 I116(3) + 4 I131(15)
   + 4 I133(9) + 4 I134(11) + 4 I135(11) + 4 I137(8) + 4 I139(9)
   + 4 I140(8) + 4 I142(9) + 4 I143(8) + 4 I145(7) + 4 I151(9) + 4 I177(14)
   + 4 I180(4) + 4 I188(15) + 4 I196(11) + 4 I200(9) + 4 I213(16)
   + 4 I214(16) + 4 I222(10) + 4 I235(11) + 4 I239(9) + 4 I243(7)
   + 4 I244(6) + 4 I246(5) + 4 I249(10) + 4 I253(7) + 4 I283(5) <= 4
 c6: 9 I22(7) + 9 I27(8) + 3 I31(7) + 3 I36(6) + 3 I37(5) + 3 I41(6)
   + 9 I53(4) + 9 I93(11) + 9 I96(7) + 9 I102(6) + 9 I103(12) + 9 I104(4)
   + 2 I110(12) + 5 I111(11) + 6 I123(10) + 5 I124(10) + 9 I167(8)
   + 9 I168(17) + 9 I169(17) + 9 I172(17) + 9 I173(18) + 5 I174(13)
   + 9 I176(10) + 9 I185(12) + 9 I186(6) + 5 I187(8) + 5 I189(15)
   + 9 I190(9) + 9 I191(12) + 9 I192(11) + 9 I195(11) + 9 I197(11)
   + 9 I198(11) + 9 I204(12) + 9 I207(10) + 5 I208(9) + 5 I209(8)
   + 9 I210(8) + 9 I211(13) + 6 I214(16) + 9 I219(18) + 9 I222(10)
   + 9 I228(7) + 9 I233(7) + 5 I238(10) + 5 I247(4) + 5 I252(7) + 9 I268(3)
   + 9 I271(3) + 9 I272(3) + 9 I273(8) + 5 I276(8) + 5 I279(6) + 5 I283(5)
   + 5 I285(5) <= 9
 c7: 8 I11(4) + 8 I13(5) + 8 I19(10) + 8 I32(4) + 8 I33(11) + 8 I49(17)
   + 8 I50(14) + 8 I62(5) + 8 I77(9) + 8 I88(8) + 8 I89(17) + 8 I90(17)
   + 8 I92(14) + 8 I93(11) + 8 I96(7) + 8 I100(8) + 8 I103(12) + 3 I112(14)
   + 8 I114(9) + 8 I117(2) + 4 I119(12) + 8 I122(12) + 8 I123(10)
   + 4 I124(10) + 8 I130(10) + 8 I131(15) + 4 I132(12) + 8 I134(11)
   + 8 I139(9) + 8 I143(8) + 4 I150(10) + 8 I157(9) + 4 I159(8)
   + 8 I173(18) + 8 I176(10) + 8 I178(7) + 8 I186(6) + 8 I189(15)
   + 8 I191(12) + 8 I196(11) + 4 I198(11) + 8 I201(16) + 8 I204(12)
   + 8 I207(10) + 8 I208(9) + 8 I210(8) + 8 I219(18) + 8 I224(9)
   + 8 I231(6) + 8 I232(9) + 8 I238(10) + 8 I248(7) + 8 I266(7) + 8 I271(3)
   + 8 I280(6) <= 8
 c8: 7 I0(7) + 7 I1(13) + 7 I4(13) + 7 I6(6) + 7 I9(8) + 7 I14(12)
   + 7 I16(6) + 7 I17(9) + 7 I19(10) + 7 I23(7) + 7 I24(10) + 7 I28(8)
   + 7 I29(4) + 7 I33(11) + 7 I34(8) + 7 I35(3) + 7 I36(6) + 7 I49(17)
   + 7 I60(5) + 7 I71(8) + 7 I80(11) + 7 I82(3) + 7 I92(14) + 7 I96(7)
   + 7 I131(15) + 7 I134(11) + 7 I139(9) + 4 I140(8) + 7 I142(9)
   + 7 I146(10) + 7 I153(7) + 7 I173(18) + 7 I174(13) + 7 I176(10)
   + 7 I181(8) + 7 I184(15) + 7 I190(9) + 7 I202(7) + 7 I205(9)
   + 7 I216(14) + 7 I218(14) + 7 I219(18) + 7 I229(11) + 7 I241(5)
   + 7 I273(8) + 7 I282(6) + 7 I285(5) <= 7
 c9: 8 I1(13) + 8 I2(13) + 8 I5(6) + 8 I7(7) + 8 I13(5) + 8 I44(15)
   + 8 I47(16) + 8 I50(14) + 8 I51(12) + 8 I56(9) + 8 I65(9) + 8 I89(17)
   + 8 I90(17) + 8 I100(8) + 8 I103(12) + 8 I115(9) + 8 I129(14)
   + 8 I132(12) + 8 I138(11) + 8 I148(10) + 8 I161(12) + 8 I162(9)
   + 8 I172(17) + 8 I180(4) + 8 I191(12) + 8 I212(5) + 8 I213(16)
   + 8 I214(16) + 8 I217(15) + 8 I220(11) + 8 I226(5) + 8 I234(2)
   + 8 I235(11) + 8 I236(3) + 8 I246(5) + 8 I249(10) + 8 I250(4)
   + 8 I255(16) + 8 I256(16) + 8 I266(7) <= 8
 c10: 8 I7(7) + 8 I12(5) + 8 I14(12) + 8 I15(10) + 8 I17(9) + 8 I19(10)
   + 8 I20(6) + 8 I23(7) + 8 I25(8) + 8 I30(9) + 8 I33(11) + 8 I34(8)
   + 8 I42(4) + 8 I50(14) + 8 I51(12) + 8 I60(5) + 8 I79(7) + 8 I118(8)
   + 8 I125(6) + 8 I126(14) + 8 I127(14) + 8 I129(14) + 8 I130(10)
   + 8 I131(15) + 8 I132(12) + 8 I136(10) + 8 I137(8) + 8 I146(10)
   + 8 I150(10) + 8 I156(11) + 8 I157(9) + 8 I158(12) + 4 I173(18)
   + 8 I174(13) + 8 I178(7) + 8 I181(8) + 8 I187(8) + 8 I190(9)
   + 8 I195(11) + 8 I196(11) + 8 I205(9) + 8 I219(18) <= 8
 c11: 11 I4(13) + 8 I14(12) + 11 I16(6) + 11 I22(7) + 11 I24(10)
   + 11 I25(8) + 11 I26(6) + 11 I30(9) + 11 I31(7) + 11 I33(11) + 11 I34(8)
   + 11 I36(6) + 11 I41(6) + 11 I48(12) + 11 I49(17) + 11 I54(14)
   + 11 I65(9) + 11 I66(3) + 11 I74(8) + 11 I75(9) + 11 I76(5) + 11 I78(4)
   + 11 I80(11) + 11 I93(11) + 11 I98(5) + 11 I106(8) + 11 I107(3)
   + 11 I108(4) + 11 I115(9) + 11 I116(3) + 11 I121(5) + 11 I123(10)
   + 11 I130(10) + 8 I131(15) + 11 I135(11) + 8 I139(9) + 11 I140(8)
   + 11 I149(6) + 11 I155(7) + 8 I173(18) + 11 I177(14) + 11 I189(15)
   + 11 I212(5) + 11 I213(16) + 11 I214(16) + 8 I218(14) + 11 I219(18)
   + 11 I224(9) + 8 I229(11) + 11 I232(9) + 11 I235(11) + 11 I237(9)
   + 11 I239(9) + 11 I243(7) + 11 I248(7) + 11 I249(10) + 11 I251(5)
   + 11 I253(7) + 11 I260(7) <= 11
 c12: 15 I2(13) + 15 I4(13) + 15 I10(10) + 13 I19(10) + 15 I24(10)
   + 8 I30(9) + 15 I33(11) + 15 I34(8) + 15 I39(8) + 15 I40(4) + 15 I47(16)
   + 15 I50(14) + 15 I51(12) + 15 I53(4) + 15 I54(14) + 15 I64(9)
   + 15 I65(9) + 15 I68(4) + 9 I89(17) + 9 I90(17) + 2 I92(14) + 9 I93(11)
   + 15 I96(7) + 15 I97(4) + 9 I103(12) + 15 I105(8) + 15 I106(8)
   + 9 I119(12) + 15 I122(12) + 13 I123(10) + 9 I124(10) + 15 I125(6)
   + 15 I126(14) + 9 I129(14) + 15 I130(10) + 13 I131(15) + 9 I132(12)
   + 9 I133(9) + 15 I134(11) + 15 I135(11) + 15 I137(8) + 15 I142(9)
   + 15 I145(7) + 15 I149(6) + 9 I150(10) + 15 I151(9) + 15 I152(5)
   + 15 I156(11) + 13 I157(9) + 15 I158(12) + 9 I159(8) + 15 I165(6)
   + 15 I171(14) + 9 I172(17) + 13 I173(18) + 9 I174(13) + 15 I175(9)
   + 15 I176(10) + 15 I177(14) + 9 I183(12) + 9 I184(15) + 15 I188(15)
   + 15 I189(15) + 15 I192(11) + 15 I193(11) + 15 I194(12) + 9 I197(11)
   + 9 I198(11) + 15 I199(8) + 15 I200(9) + 15 I201(16) + 15 I203(6)
   + 15 I204(12) + 13 I207(10) + 13 I208(9) + 9 I210(8) + 15 I211(13)
   + 9 I216(14) + 9 I217(15) + 15 I218(14) + 13 I219(18) + 9 I220(11)
   + 15 I221(11) + 9 I238(10) + 15 I242(10) + 8 I255(16) + 8 I256(16)
   + 9 I258(14) + 15 I276(8) + 15 I279(6) + 15 I280(6) <= 17
 c13: 6 I8(10) + 6 I9(8) + 6 I10(10) + 6 I15(10) + 6 I18(6) + 6 I27(8)
   + 6 I28(8) + 6 I46(14) + 6 I49(17) + 6 I54(14) + 6 I55(11) + 6 I61(8)
   + 6 I63(4) + 6 I64(9) + 6 I70(4) + 6 I71(8) + 6 I73(8) + 6 I80(11)
   + 6 I96(7) + 6 I112(14) + 6 I134(11) + 6 I135(11) + 6 I137(8)
   + 6 I142(9) + 6 I145(7) + 6 I147(5) + 6 I149(6) + 6 I151(9) + 6 I153(7)
   + 6 I154(5) + 6 I155(7) + 6 I163(9) + 6 I165(6) + 6 I167(8) + 6 I168(17)
   + 6 I169(17) + 6 I171(14) + 6 I176(10) + 6 I177(14) + 6 I182(11)
   + 6 I184(15) + 6 I185(12) + 6 I190(9) + 6 I192(11) + 6 I193(11)
   + 6 I194(12) + 6 I196(11) + 6 I197(11) + 6 I199(8) + 6 I200(9)
   + 6 I202(7) + 6 I204(12) + 6 I207(10) + 6 I209(8) + 6 I216(14)
   + 6 I217(15) + 6 I225(6) + 6 I238(10) + 6 I258(14) + 6 I276(8)
   + 6 I280(6) + 6 I281(6) <= 6
 c14: 2 I10(10) + 11 I13(5) + 4 I14(12) + 11 I17(9) + 11 I59(8) + 11 I60(5)
   + 11 I62(5) + 11 I64(9) + 11 I67(6) + 11 I70(4) + 11 I72(6) + 11 I94(8)
   + 11 I106(8) + 11 I110(12) + 10 I111(11) + 11 I118(8) + 11 I124(10)
   + 11 I167(8) + 11 I168(17) + 11 I169(17) + 11 I172(17) + 11 I173(18)
   + 11 I176(10) + 11 I184(15) + 11 I186(6) + 11 I189(15) + 11 I190(9)
   + 11 I191(12) + 11 I192(11) + 11 I195(11) + 11 I197(11) + 11 I198(11)
   + 11 I199(8) + 11 I200(9) + 11 I204(12) + 11 I205(9) + 11 I207(10)
   + 11 I208(9) + 11 I209(8) + 11 I210(8) + 11 I211(13) + 11 I217(15)
   + 11 I219(18) + 9 I233(7) + 11 I238(10) + 11 I252(7) + 5 I256(16)
   + 11 I266(7) + 11 I275(9) + 11 I276(8) <= 11
 c15: 11 I8(10) + 11 I9(8) + 11 I14(12) + 11 I15(10) + 11 I18(6) + 4 I20(6)
   + 11 I21(6) + 11 I22(7) + 11 I23(7) + 11 I25(8) + 11 I26(6) + 4 I27(8)
   + 11 I28(8) + 11 I29(4) + 11 I30(9) + 11 I31(7) + 11 I32(4) + 11 I37(5)
   + 11 I38(4) + 11 I41(6) + 11 I47(16) + 11 I88(8) + 11 I89(17)
   + 11 I90(17) + 4 I92(14) + 11 I94(8) + 11 I95(4) + 11 I96(7)
   + 11 I103(12) + 4 I110(12) + 11 I111(11) + 5 I126(14) + 5 I127(14)
   + 11 I129(14) + 11 I130(10) + 11 I131(15) + 11 I133(9) + 11 I134(11)
   + 11 I139(9) + 11 I140(8) + 5 I144(4) + 4 I149(6) + 5 I150(10)
   + 5 I151(9) + 4 I156(11) + 5 I158(12) + 10 I172(17) + 11 I173(18)
   + 11 I176(10) + 11 I181(8) + 11 I182(11) + 5 I188(15) + 10 I189(15)
   + 11 I190(9) + 10 I193(11) + 4 I194(12) + 4 I198(11) + 5 I201(16)
   + 11 I227(5) + 11 I228(7) + 11 I267(3) + 11 I270(2) + 11 I275(9) <= 11
 c16: 5 I2(13) + 5 I15(10) + 5 I44(15) + 5 I47(16) + 5 I48(12) + 5 I58(8)
   + 5 I89(17) + 5 I90(17) + 5 I94(8) + 5 I102(6) + 5 I126(14) + 5 I127(14)
   + 5 I129(14) + 5 I130(10) + 5 I136(10) + 5 I141(7) + 5 I144(4)
   + 5 I146(10) + 5 I147(5) + 5 I150(10) + 5 I151(9) + 5 I153(7)
   + 5 I154(5) + 5 I158(12) + 5 I160(8) + 5 I161(12) + 5 I164(9)
   + 5 I165(6) + 5 I166(6) + 5 I168(17) + 5 I169(17) + 5 I172(17)
   + 5 I174(13) + 5 I178(7) + 5 I182(11) + 5 I188(15) + 5 I189(15)
   + 5 I191(12) + 5 I193(11) + 5 I194(12) + 5 I198(11) + 5 I201(16)
   + 5 I202(7) + 5 I204(12) + 5 I205(9) + 5 I207(10) + 5 I209(8)
   + 5 I211(13) + 5 I213(16) + 5 I214(16) + 5 I217(15) + 5 I218(14)
   + 5 I224(9) + 5 I228(7) + 5 I229(11) + 5 I232(9) + 5 I235(11)
   + 5 I237(9) + 5 I239(9) + 5 I241(5) + 5 I243(7) + 5 I248(7) + 5 I249(10)
   + 5 I251(5) + 5 I253(7) + 5 I254(6) + 5 I255(16) + 5 I256(16)
   + 5 I260(7) + 5 I262(5) + 5 I268(3) <= 5
 c17: 11 I14(12) + 11 I15(10) + 11 I38(4) + 5 I47(16) + 11 I49(17)
   + 4 I50(14) + 11 I51(12) + 11 I54(14) + 11 I57(4) + 11 I63(4) + 5 I64(9)
   + 11 I67(6) + 11 I70(4) + 5 I71(8) + 11 I72(6) + 11 I73(8) + 11 I74(8)
   + 11 I83(2) + 11 I84(3) + 11 I85(9) + 11 I86(3) + 11 I87(5) + 11 I97(4)
   + 11 I99(4) + 4 I132(12) + 5 I134(11) + 11 I135(11) + 5 I142(9)
   + 5 I145(7) + 5 I147(5) + 11 I148(10) + 5 I153(7) + 11 I154(5)
   + 5 I155(7) + 11 I161(12) + 11 I162(9) + 4 I163(9) + 5 I165(6)
   + 11 I173(18) + 11 I174(13) + 11 I175(9) + 11 I177(14) + 11 I181(8)
   + 11 I182(11) + 5 I183(12) + 5 I184(15) + 5 I185(12) + 5 I188(15)
   + 11 I189(15) + 5 I193(11) + 11 I194(12) + 5 I197(11) + 5 I199(8)
   + 5 I200(9) + 5 I201(16) + 11 I206(8) + 5 I209(8) + 11 I219(18)
   + 11 I220(11) + 11 I221(11) + 11 I223(7) + 11 I225(6) + 11 I235(11)
   + 11 I249(10) + 11 I254(6) + 4 I275(9) <= 11
 c18: 5 I1(13) + 5 I2(13) + 5 I4(13) + 5 I5(6) + 5 I19(10) + 5 I30(9)
   + 5 I32(4) + 5 I33(11) + 5 I39(8) + 5 I44(15) + 5 I46(14) + 5 I47(16)
   + 5 I49(17) + 5 I50(14) + 5 I55(11) + 5 I62(5) + 5 I65(9) + 5 I74(8)
   + 5 I75(9) + 5 I77(9) + 5 I80(11) + 5 I85(9) + 5 I89(17) + 5 I90(17)
   + 5 I92(14) + 5 I93(11) + 5 I112(14) + 5 I114(9) + 5 I119(12)
   + 5 I123(10) + 5 I124(10) + 5 I125(6) + 5 I126(14) + 5 I129(14)
   + 5 I131(15) + 5 I132(12) + 5 I150(10) + 5 I152(5) + 5 I156(11)
   + 5 I157(9) + 5 I158(12) + 5 I159(8) + 5 I168(17) + 5 I169(17)
   + 5 I171(14) + 5 I172(17) + 5 I173(18) + 5 I183(12) + 5 I184(15)
   + 5 I187(8) + 5 I188(15) + 5 I189(15) + 5 I191(12) + 5 I196(11)
   + 5 I198(11) + 5 I207(10) + 5 I208(9) + 5 I213(16) + 5 I214(16)
   + 5 I216(14) + 5 I217(15) + 5 I219(18) + 5 I220(11) + 5 I229(11)
   + 5 I235(11) + 5 I237(9) + 5 I239(9) + 5 I241(5) + 5 I242(10)
   + 5 I249(10) + 5 I255(16) + 5 I256(16) + 5 I258(14) + 5 I273(8) <= 5
 c19: 10 I33(11) + 10 I48(12) + 10 I88(8) + 10 I89(17) + 10 I94(8)
   + 10 I100(8) + 10 I105(8) + 10 I124(10) + 9 I138(11) + 9 I146(10)
   + 9 I148(10) + 2 I160(8) + 9 I161(12) + 9 I162(9) + 10 I163(9)
   + 9 I164(9) + 10 I166(6) + 2 I171(14) + 10 I174(13) + 10 I182(11)
   + 9 I183(12) + 10 I187(8) + 2 I188(15) + 10 I189(15) + 10 I193(11)
   + 10 I194(12) + 10 I201(16) + 10 I206(8) + 10 I208(9) + 10 I209(8)
   + 10 I218(14) + 10 I229(11) + 6 I233(7) + 10 I238(10) + 10 I247(4)
   + 10 I252(7) + 10 I255(16) + 10 I256(16) + 2 I258(14) + 10 I260(7)
   + 10 I262(5) + 10 I266(7) + 10 I269(2) + 10 I276(8) + 10 I279(6)
   + 10 I282(6) + 10 I283(5) + 10 I285(5) <= 10
 c20: 13 I0(7) + 13 I1(13) + 13 I2(13) + 13 I4(13) + 13 I5(6) + 13 I8(10)
   + 13 I10(10) + 11 I14(12) + 13 I16(6) + 13 I19(10) + 13 I20(6)
   + 13 I24(10) + 13 I25(8) + 13 I30(9) + 5 I33(11) + 13 I34(8) + 13 I38(4)
   + 13 I39(8) + 13 I40(4) + 13 I54(14) + 13 I58(8) + 13 I61(8)
   + 13 I92(14) + 13 I97(4) + 13 I104(4) + 13 I122(12) + 8 I127(14)
   + 6 I138(11) + 6 I146(10) + 6 I148(10) + 13 I160(8) + 6 I161(12)
   + 6 I162(9) + 5 I163(9) + 6 I164(9) + 13 I171(14) + 13 I177(14)
   + 5 I182(11) + 6 I183(12) + 13 I188(15) + 5 I193(11) + 5 I194(12)
   + 5 I201(16) + 13 I203(6) + 5 I206(8) + 13 I223(7) + 13 I237(9)
   + 13 I258(14) + 13 I259(5) <= 13
 c21: <= 0
 c22: 4 I9(8) + 10 I16(6) + 9 I24(10) + 4 I44(15) + 9 I46(14) + 10 I47(16)
   + 10 I48(12) + 10 I49(17) + 4 I54(14) + 10 I55(11) + 10 I59(8)
   + 10 I61(8) + 10 I64(9) + 10 I65(9) + 10 I67(6) + 10 I68(4) + 10 I71(8)
   + 4 I73(8) + 10 I75(9) + 10 I77(9) + 10 I80(11) + 10 I85(9)
   + 10 I129(14) + 4 I131(15) + 4 I133(9) + 10 I134(11) + 10 I135(11)
   + 10 I142(9) + 10 I145(7) + 10 I147(5) + 10 I149(6) + 10 I151(9)
   + 10 I153(7) + 10 I155(7) + 10 I165(6) + 10 I167(8) + 10 I168(17)
   + 10 I169(17) + 10 I171(14) + 10 I172(17) + 10 I173(18) + 10 I176(10)
   + 4 I177(14) + 10 I183(12) + 10 I184(15) + 10 I185(12) + 10 I188(15)
   + 10 I189(15) + 9 I191(12) + 9 I192(11) + 10 I193(11) + 4 I194(12)
   + 10 I197(11) + 10 I199(8) + 10 I200(9) + 10 I201(16) + 9 I202(7)
   + 10 I206(8) + 10 I209(8) + 9 I211(13) + 10 I216(14) + 10 I217(15)
   + 10 I219(18) + 10 I223(7) + 10 I242(10) + 4 I255(16) + 4 I256(16)
   + 10 I258(14) + 10 I276(8) + 10 I279(6) + 10 I281(6) <= 10
 c23: 15 I1(13) + 15 I2(13) + 4 I4(13) + 15 I12(5) + 15 I21(6) + 4 I22(7)
   + 8 I23(7) + 4 I24(10) + 4 I33(11) + 15 I39(8) + 15 I42(4) + 15 I43(6)
   + 15 I44(15) + 15 I46(14) + 15 I51(12) + 15 I55(11) + 15 I56(9)
   + 15 I64(9) + 15 I77(9) + 15 I79(7) + 15 I84(3) + 15 I85(9) + 15 I87(5)
   + 15 I92(14) + 15 I94(8) + 15 I110(12) + 15 I118(8) + 15 I119(12)
   + 15 I122(12) + 15 I124(10) + 15 I126(14) + 15 I127(14) + 15 I136(10)
   + 8 I146(10) + 15 I156(11) + 15 I158(12) + 15 I160(8) + 15 I164(9)
   + 15 I166(6) + 15 I168(17) + 15 I169(17) + 15 I171(14) + 8 I174(13)
   + 15 I188(15) + 15 I201(16) + 15 I204(12) + 8 I205(9) + 15 I211(13)
   + 4 I213(16) + 4 I214(16) + 15 I216(14) + 15 I255(16) + 15 I256(16)
   + 15 I258(14) + 15 I262(5) <= 15
 c24: 7 I1(13) + 7 I2(13) + 7 I5(6) + 7 I8(10) + 7 I14(12) + 7 I30(9)
   + 7 I39(8) + 7 I44(15) + 7 I47(16) + 7 I51(12) + 7 I52(4) + 7 I56(9)
   + 7 I60(5) + 7 I65(9) + 7 I74(8) + 7 I75(9) + 7 I85(9) + 7 I94(8)
   + 7 I112(14) + 7 I125(6) + 7 I126(14) + 7 I127(14) + 7 I129(14)
   + 7 I136(10) + 7 I138(11) + 7 I148(10) + 7 I152(5) + 7 I156(11)
   + 7 I158(12) + 7 I161(12) + 7 I162(9) + 7 I163(9) + 7 I164(9)
   + 7 I168(17) + 7 I169(17) + 7 I172(17) + 7 I174(13) + 7 I175(9)
   + 7 I178(7) + 7 I184(15) + 7 I185(12) + 7 I187(8) + 7 I189(15)
   + 7 I195(11) + 7 I196(11) + 7 I206(8) + 7 I211(13) + 7 I213(16)
   + 7 I214(16) + 7 I217(15) + 7 I221(11) + 7 I222(10) + 7 I235(11)
   + 7 I239(9) + 7 I242(10) + 7 I249(10) + 7 I252(7) + 7 I255(16)
   + 7 I256(16) + 7 I259(5) + 7 I273(8) + 7 I282(6) + 7 I285(5) <= 7
 c25: <= 0
 c26: 6 I4(13) + 6 I61(8) + 6 I66(3) + 6 I71(8) + 6 I73(8) + 6 I76(5)
   + 6 I78(4) + 6 I79(7) + 6 I80(11) + 6 I92(14) + 6 I99(4) + 6 I103(12)
   + 6 I104(4) + 6 I107(3) + 6 I111(11) + 6 I119(12) + 6 I138(11)
   + 6 I146(10) + 6 I148(10) + 6 I160(8) + 6 I161(12) + 6 I162(9)
   + 6 I164(9) + 5 I166(6) + 6 I176(10) + 6 I179(5) + 6 I183(12)
   + 6 I185(12) + 6 I190(9) + 6 I196(11) + 6 I197(11) + 6 I198(11)
   + 6 I203(6) + 6 I212(5) + 6 I213(16) + 6 I218(14) + 6 I221(11)
   + 6 I225(6) + 6 I229(11) + 6 I235(11) + 6 I239(9) + 6 I241(5)
   + 6 I242(10) + 6 I244(6) + 6 I249(10) + 6 I253(7) + 6 I280(6)
   + 6 I281(6) <= 6
 c27: 6 I1(13) + 6 I2(13) + 6 I4(13) + 6 I10(10) + 6 I19(10) + 6 I39(8)
   + 6 I44(15) + 6 I46(14) + 6 I48(12) + 6 I55(11) + 6 I56(9) + 6 I61(8)
   + 6 I65(9) + 6 I67(6) + 6 I72(6) + 6 I75(9) + 6 I125(6) + 6 I126(14)
   + 6 I127(14) + 6 I130(10) + 6 I132(12) + 6 I135(11) + 6 I136(10)
   + 6 I138(11) + 6 I141(7) + 6 I148(10) + 6 I152(5) + 6 I156(11)
   + 6 I158(12) + 6 I161(12) + 6 I163(9) + 6 I168(17) + 6 I169(17)
   + 6 I171(14) + 6 I182(11) + 6 I185(12) + 6 I195(11) + 6 I197(11)
   + 6 I205(9) + 6 I213(16) + 6 I214(16) + 6 I216(14) + 6 I218(14)
   + 6 I220(11) + 6 I222(10) + 6 I233(7) + 6 I239(9) + 6 I252(7)
   + 6 I255(16) + 6 I256(16) + 6 I258(14) + 6 I260(7) + 6 I261(4)
   + 6 I273(8) + 6 I275(9) + 6 I282(6) <= 6
 c28: 9 I17(9) + 9 I43(6) + 9 I44(15) + 9 I46(14) + 9 I47(16) + 9 I48(12)
   + 9 I49(17) + 9 I50(14) + 9 I56(9) + 9 I58(8) + 9 I59(8) + 9 I68(4)
   + 9 I80(11) + 9 I90(17) + 9 I92(14) + 9 I102(6) + 9 I110(12)
   + 9 I112(14) + 9 I113(3) + 9 I114(9) + 9 I118(8) + 9 I119(12)
   + 9 I122(12) + 9 I123(10) + 9 I203(6) + 9 I216(14) + 9 I217(15)
   + 9 I220(11) + 9 I228(7) + 9 I231(6) + 9 I232(9) + 9 I240(5)
   + 9 I242(10) + 9 I259(5) + 9 I260(7) + 9 I261(4) + 9 I275(9) + 9 I277(3)
   + 9 I280(6) + 9 I281(6) + 9 I284(3) <= 9
 c29: 11 I7(7) + 11 I9(8) + 11 I10(10) + 11 I15(10) + 11 I20(6) + 11 I27(8)
   + 11 I46(14) + 11 I47(16) + 11 I50(14) + 11 I54(14) + 11 I55(11)
   + 11 I58(8) + 11 I64(9) + 11 I88(8) + 10 I89(17) + 10 I90(17)
   + 11 I92(14) + 11 I102(6) + 11 I105(8) + 11 I110(12) + 11 I111(11)
   + 11 I112(14) + 4 I115(9) + 11 I118(8) + 11 I119(12) + 11 I120(6)
   + 11 I122(12) + 10 I126(14) + 10 I127(14) + 11 I132(12) + 11 I134(11)
   + 11 I135(11) + 10 I136(10) + 11 I138(11) + 10 I141(7) + 10 I144(4)
   + 10 I150(10) + 10 I151(9) + 11 I156(11) + 10 I158(12) + 7 I161(12)
   + 11 I171(14) + 11 I172(17) + 11 I177(14) + 11 I182(11) + 11 I187(8)
   + 10 I188(15) + 7 I191(12) + 11 I194(12) + 11 I198(11) + 10 I201(16)
   + 11 I228(7) + 11 I258(14) + 11 I275(9) <= 11
 c30: 5 I7(7) + 5 I12(5) + 5 I20(6) + 5 I23(7) + 5 I25(8) + 5 I28(8)
   + 5 I30(9) + 5 I33(11) + 5 I34(8) + 5 I49(17) + 5 I50(14) + 5 I51(12)
   + 5 I79(7) + 5 I80(11) + 5 I89(17) + 5 I90(17) + 5 I93(11) + 5 I112(14)
   + 5 I118(8) + 5 I126(14) + 5 I127(14) + 5 I129(14) + 5 I131(15)
   + 5 I132(12) + 5 I136(10) + 5 I137(8) + 5 I145(7) + 5 I146(10)
   + 5 I150(10) + 5 I155(7) + 5 I156(11) + 5 I157(9) + 5 I158(12)
   + 5 I160(8) + 5 I164(9) + 5 I167(8) + 5 I168(17) + 5 I169(17)
   + 5 I173(18) + 5 I174(13) + 5 I178(7) + 5 I179(5) + 5 I185(12)
   + 5 I187(8) + 4 I189(15) + 5 I190(9) + 5 I192(11) + 5 I195(11)
   + 5 I196(11) + 5 I197(11) + 5 I199(8) + 5 I200(9) + 5 I204(12)
   + 5 I205(9) + 5 I219(18) + 5 I233(7) + 5 I247(4) <= 5
 c31: 6 I14(12) + 2 I19(10) + 6 I59(8) + 6 I80(11) + 6 I88(8) + 6 I89(17)
   + 6 I90(17) + 6 I93(11) + 6 I103(12) + 6 I119(12) + 2 I123(10)
   + 6 I124(10) + 6 I129(14) + 2 I131(15) + 6 I132(12) + 6 I133(9)
   + 6 I136(10) + 6 I139(9) + 6 I143(8) + 6 I150(10) + 2 I157(9)
   + 6 I159(8) + 6 I172(17) + 2 I173(18) + 6 I174(13) + 6 I183(12)
   + 6 I184(15) + 6 I185(12) + 6 I195(11) + 6 I198(11) + 2 I207(10)
   + 2 I208(9) + 6 I210(8) + 6 I216(14) + 6 I217(15) + 2 I219(18)
   + 6 I220(11) + 6 I221(11) + 6 I224(9) + 6 I232(9) + 6 I237(9)
   + 6 I238(10) + 6 I258(14) <= 6
 c32: 9 I27(8) + 9 I48(12) + 9 I58(8) + 9 I69(3) + 9 I99(4) + 9 I102(6)
   + 9 I109(3) + 9 I120(6) + 9 I179(5) + 9 I182(11) + 9 I184(15)
   + 9 I212(5) + 9 I213(16) + 9 I214(16) + 9 I216(14) + 9 I217(15)
   + 9 I218(14) + 9 I219(18) + 9 I220(11) + 9 I222(10) + 9 I225(6)
   + 9 I228(7) + 9 I232(9) + 9 I237(9) + 9 I238(10) + 9 I243(7) + 9 I244(6)
   + 9 I246(5) + 9 I265(2) <= 9
 c33: 11 I0(7) + 11 I1(13) + 11 I2(13) + 11 I6(6) + 11 I7(7) + 11 I8(10)
   + 11 I9(8) + 11 I10(10) + 11 I12(5) + 11 I17(9) + 11 I19(10) + 11 I23(7)
   + 11 I25(8) + 11 I28(8) + 11 I29(4) + 11 I34(8) + 11 I35(3) + 11 I39(8)
   + 11 I42(4) + 11 I44(15) + 11 I50(14) + 11 I52(4) + 11 I56(9)
   + 11 I79(7) + 11 I95(4) + 11 I126(14) + 11 I127(14) + 11 I130(10)
   + 11 I131(15) + 11 I132(12) + 11 I133(9) + 11 I136(10) + 11 I137(8)
   + 11 I138(11) + 11 I141(7) + 11 I156(11) + 11 I157(9) + 11 I158(12)
   + 11 I163(9) + 11 I179(5) + 11 I195(11) + 11 I203(6) + 11 I205(9)
   + 11 I213(16) + 11 I214(16) + 11 I222(10) + 11 I233(7) + 11 I252(7)
   + 11 I255(16) + 11 I256(16) + 11 I261(4) + 11 I263(2) + 11 I273(8)
   + 11 I275(9) + 11 I282(6) <= 11
 c34: 6 I0(7) + 6 I1(13) + 6 I2(13) + 6 I5(6) + 6 I6(6) + 6 I7(7)
   + 6 I8(10) + 6 I10(10) + 6 I11(4) + 6 I24(10) + 6 I98(5) + 6 I100(8)
   + 6 I115(9) + 6 I121(5) + 5 I129(14) + 6 I138(11) + 5 I140(8)
   + 6 I148(10) + 6 I161(12) + 6 I162(9) + 5 I172(17) + 6 I192(11)
   + 6 I218(14) + 6 I220(11) + 6 I224(9) + 6 I226(5) + 6 I235(11)
   + 6 I236(3) + 6 I244(6) + 6 I246(5) + 6 I249(10) + 6 I250(4) + 6 I274(3)
   <= 6
 c35: 9 I11(4) + 9 I43(6) + 6 I44(15) + 6 I46(14) + 9 I47(16) + 6 I49(17)
   + 6 I50(14) + 9 I51(12) + 9 I54(14) + 9 I55(11) + 9 I59(8) + 9 I67(6)
   + 9 I72(6) + 9 I73(8) + 9 I74(8) + 9 I75(9) + 9 I77(9) + 9 I78(4)
   + 9 I79(7) + 9 I81(3) + 9 I82(3) + 9 I85(9) + 9 I98(5) + 9 I112(14)
   + 9 I113(3) + 9 I118(8) + 9 I122(12) + 9 I175(9) + 9 I177(14)
   + 9 I178(7) + 9 I181(8) + 9 I195(11) + 9 I196(11) + 9 I221(11)
   + 9 I224(9) + 9 I227(5) + 9 I231(6) + 9 I240(5) + 9 I248(7) + 9 I264(3)
   + 9 I277(3) <= 9
 c36: 8 I0(7) + 8 I1(13) + 8 I4(13) + 8 I6(6) + 8 I8(10) + 8 I13(5)
   + 8 I15(10) + 8 I17(9) + 8 I25(8) + 8 I28(8) + 8 I44(15) + 8 I46(14)
   + 8 I48(12) + 8 I49(17) + 8 I55(11) + 8 I56(9) + 8 I58(8) + 8 I89(17)
   + 8 I90(17) + 8 I92(14) + 8 I93(11) + 8 I94(8) + 8 I100(8) + 8 I122(12)
   + 8 I143(8) + 8 I171(14) + 8 I173(18) + 8 I174(13) + 8 I175(9)
   + 8 I180(4) + 8 I182(11) + 8 I183(12) + 8 I188(15) + 8 I193(11)
   + 8 I194(12) + 8 I196(11) + 8 I201(16) + 8 I206(8) + 8 I219(18)
   + 8 I221(11) + 8 I226(5) + 8 I266(7) + 8 I283(5) <= 8
 c37: 5 I4(13) + 5 I88(8) + 4 I89(17) + 4 I90(17) + 5 I92(14) + 5 I95(4)
   + 5 I98(5) + 5 I103(12) + 5 I105(8) + 5 I106(8) + 5 I108(4) + 4 I110(12)
   + 5 I111(11) + 5 I112(14) + 5 I114(9) + 5 I119(12) + 5 I121(5)
   + 4 I122(12) + 5 I123(10) + 5 I140(8) + 5 I143(8) + 5 I159(8)
   + 5 I218(14) + 5 I224(9) + 5 I229(11) + 5 I230(2) + 5 I232(9)
   + 5 I237(9) + 5 I240(5) + 5 I243(7) + 5 I248(7) + 5 I251(5) + 5 I253(7)
   <= 5
 c38: 5 I15(10) + 5 I47(16) + 5 I54(14) + 5 I59(8) + 5 I77(9) + 5 I88(8)
   + 5 I89(17) + 5 I90(17) + 5 I100(8) + 5 I103(12) + 4 I105(8) + 5 I106(8)
   + 5 I108(4) + 5 I110(12) + 5 I111(11) + 5 I112(14) + 5 I114(9)
   + 5 I115(9) + 4 I119(12) + 4 I121(5) + 5 I122(12) + 5 I123(10)
   + 5 I126(14) + 5 I127(14) + 5 I129(14) + 5 I130(10) + 5 I137(8)
   + 5 I140(8) + 5 I141(7) + 5 I142(9) + 4 I143(8) + 5 I157(9) + 4 I159(8)
   + 5 I168(17) + 5 I169(17) + 5 I172(17) + 5 I177(14) + 5 I183(12)
   + 5 I184(15) + 5 I191(12) + 5 I201(16) + 5 I202(7) + 5 I211(13)
   + 5 I213(16) + 5 I214(16) + 5 I217(15) + 5 I229(11) + 5 I231(6)
   + 5 I239(9) + 5 I240(5) + 5 I242(10) + 5 I243(7) + 5 I253(7) <= 5
 c39: 6 I4(13) + 6 I14(12) + 6 I46(14) + 6 I48(12) + 6 I57(4) + 6 I89(17)
   + 6 I90(17) + 6 I92(14) + 6 I101(2) + 6 I105(8) + 5 I106(8) + 6 I110(12)
   + 5 I111(11) + 5 I112(14) + 5 I114(9) + 6 I119(12) + 6 I122(12)
   + 6 I139(9) + 6 I143(8) + 6 I159(8) + 6 I167(8) + 6 I168(17)
   + 6 I169(17) + 6 I171(14) + 6 I175(9) + 6 I181(8) + 6 I191(12)
   + 6 I202(7) + 6 I211(13) + 6 I216(14) + 6 I218(14) + 6 I221(11)
   + 6 I227(5) + 6 I231(6) + 6 I232(9) + 6 I237(9) + 6 I244(6) + 6 I251(5)
   + 6 I258(14) + 6 I260(7) + 6 I267(3) <= 6
 c40: 11 I18(6) + 12 I21(6) + 6 I22(7) + 12 I26(6) + 6 I27(8) + 12 I31(7)
   + 12 I36(6) + 12 I37(5) + 12 I41(6) + 12 I51(12) + 12 I54(14)
   + 12 I61(8) + 12 I69(3) + 12 I109(3) + 12 I115(9) + 12 I120(6)
   + 12 I167(8) + 12 I168(17) + 12 I172(17) + 12 I177(14) + 11 I184(15)
   + 12 I192(11) + 12 I223(7) + 12 I224(9) + 12 I248(7) + 12 I262(5)
   + 12 I264(3) + 12 I274(3) + 12 I278(2) <= 12
 c41: I0(7) + I1(13) + I2(13) + I3(1) + I4(13) + I5(6) + I6(6) + I7(7)
   + I8(10) + I9(8) + I10(10) + I11(4) + I12(5) + I13(5) + I14(12)
   + I15(10) + I16(6) + I17(9) + I18(6) + I19(10) + I20(6) + I21(6)
   + I22(7) + I23(7) + I24(10) + I25(8) + I26(6) + I27(8) + I28(8) + I29(4)
   + I30(9) + I31(7) + I32(4) + I33(11) + I34(8) + I35(3) + I36(6) + I37(5)
   + I38(4) + I39(8) + I40(4) + I41(6) + I42(4) = 1
 c42: I43(6) + I44(15) + I45(1) + I46(14) + I47(16) + I48(12) + I49(17)
   + I50(14) + I51(12) + I52(4) + I53(4) + I54(14) + I55(11) + I56(9)
   + I57(4) + I58(8) + I59(8) + I60(5) + I61(8) + I62(5) + I63(4) + I64(9)
   + I65(9) + I66(3) + I67(6) + I68(4) + I69(3) + I70(4) + I71(8) + I72(6)
   + I73(8) + I74(8) + I75(9) + I76(5) + I77(9) + I78(4) + I79(7) + I80(11)
   + I81(3) + I82(3) + I83(2) + I84(3) + I85(9) + I86(3) + I87(5) = 1
 c43: I88(8) + I89(17) + I90(17) + I91(1) + I92(14) + I93(11) + I94(8)
   + I95(4) + I96(7) + I97(4) + I98(5) + I99(4) + I100(8) + I101(2)
   + I102(6) + I103(12) + I104(4) + I105(8) + I106(8) + I107(3) + I108(4)
   + I109(3) + I110(12) + I111(11) + I112(14) + I113(3) + I114(9) + I115(9)
   + I116(3) + I117(2) + I118(8) + I119(12) + I120(6) + I121(5) + I122(12)
   + I123(10) + I124(10) = 1
 c44: I125(6) + I126(14) + I127(14) + I128(1) + I129(14) + I130(10)
   + I131(15) + I132(12) + I133(9) + I134(11) + I135(11) + I136(10)
   + I137(8) + I138(11) + I139(9) + I140(8) + I141(7) + I142(9) + I143(8)
   + I144(4) + I145(7) + I146(10) + I147(5) + I148(10) + I149(6) + I150(10)
   + I151(9) + I152(5) + I153(7) + I154(5) + I155(7) + I156(11) + I157(9)
   + I158(12) + I159(8) + I160(8) + I161(12) + I162(9) + I163(9) + I164(9)
   + I165(6) + I166(6) = 1
 c45: I167(8) + I168(17) + I169(17) + I170(1) + I171(14) + I172(17)
   + I173(18) + I174(13) + I175(9) + I176(10) + I177(14) + I178(7)
   + I179(5) + I180(4) + I181(8) + I182(11) + I183(12) + I184(15)
   + I185(12) + I186(6) + I187(8) + I188(15) + I189(15) + I190(9)
   + I191(12) + I192(11) + I193(11) + I194(12) + I195(11) + I196(11)
   + I197(11) + I198(11) + I199(8) + I200(9) + I201(16) + I202(7) + I203(6)
   + I204(12) + I205(9) + I206(8) + I207(10) + I208(9) + I209(8) + I210(8)
   + I211(13) = 1
 c46: I212(5) + I213(16) + I214(16) + I215(1) + I216(14) + I217(15)
   + I218(14) + I219(18) + I220(11) + I221(11) + I222(10) + I223(7)
   + I224(9) + I225(6) + I226(5) + I227(5) + I228(7) + I229(11) + I230(2)
   + I231(6) + I232(9) + I233(7) + I234(2) + I235(11) + I236(3) + I237(9)
   + I238(10) + I239(9) + I240(5) + I241(5) + I242(10) + I243(7) + I244(6)
   + I245(2) + I246(5) + I247(4) + I248(7) + I249(10) + I250(4) + I251(5)
   + I252(7) + I253(7) = 1
 c47: I254(6) + I255(16) + I256(16) + I257(1) + I258(14) + I259(5)
   + I260(7) + I261(4) + I262(5) + I263(2) + I264(3) + I265(2) + I266(7)
   + I267(3) + I268(3) + I269(2) + I270(2) + I271(3) + I272(3) + I273(8)
   + I274(3) + I275(9) + I276(8) + I277(3) + I278(2) + I279(6) + I280(6)
   + I281(6) + I282(6) + I283(5) + I284(3) + I285(5) = 1
Bounds
Generals
 I0(7) I1(13) I2(13) I3(1) I4(13) I5(6) I6(6) I7(7) I8(10) I9(8) I10(10)
 I11(4) I12(5) I13(5) I14(12) I15(10) I16(6) I17(9) I18(6) I19(10) I20(6)
 I21(6) I22(7) I23(7) I24(10) I25(8) I26(6) I27(8) I28(8) I29(4) I30(9)
 I31(7) I32(4) I33(11) I34(8) I35(3) I36(6) I37(5) I38(4) I39(8) I40(4)
 I41(6) I42(4) I43(6) I44(15) I45(1) I46(14) I47(16) I48(12) I49(17)
 I50(14) I51(12) I52(4) I53(4) I54(14) I55(11) I56(9) I57(4) I58(8) I59(8)
 I60(5) I61(8) I62(5) I63(4) I64(9) I65(9) I66(3) I67(6) I68(4) I69(3)
 I70(4) I71(8) I72(6) I73(8) I74(8) I75(9) I76(5) I77(9) I78(4) I79(7)
 I80(11) I81(3) I82(3) I83(2) I84(3) I85(9) I86(3) I87(5) I88(8) I89(17)
 I90(17) I91(1) I92(14) I93(11) I94(8) I95(4) I96(7) I97(4) I98(5) I99(4)
 I100(8) I101(2) I102(6) I103(12) I104(4) I105(8) I106(8) I107(3) I108(4)
 I109(3) I110(12) I111(11) I112(14) I113(3) I114(9) I115(9) I116(3) I117(2)
 I118(8) I119(12) I120(6) I121(5) I122(12) I123(10) I124(10) I125(6)
 I126(14) I127(14) I128(1) I129(14) I130(10) I131(15) I132(12) I133(9)
 I134(11) I135(11) I136(10) I137(8) I138(11) I139(9) I140(8) I141(7)
 I142(9) I143(8) I144(4) I145(7) I146(10) I147(5) I148(10) I149(6) I150(10)
 I151(9) I152(5) I153(7) I154(5) I155(7) I156(11) I157(9) I158(12) I159(8)
 I160(8) I161(12) I162(9) I163(9) I164(9) I165(6) I166(6) I167(8) I168(17)
 I169(17) I170(1) I171(14) I172(17) I173(18) I174(13) I175(9) I176(10)
 I177(14) I178(7) I179(5) I180(4) I181(8) I182(11) I183(12) I184(15)
 I185(12) I186(6) I187(8) I188(15) I189(15) I190(9) I191(12) I192(11)
 I193(11) I194(12) I195(11) I196(11) I197(11) I198(11) I199(8) I200(9)
 I201(16) I202(7) I203(6) I204(12) I205(9) I206(8) I207(10) I208(9) I209(8)
 I210(8) I211(13) I212(5) I213(16) I214(16) I215(1) I216(14) I217(15)
 I218(14) I219(18) I220(11) I221(11) I222(10) I223(7) I224(9) I225(6)
 I226(5) I227(5) I228(7) I229(11) I230(2) I231(6) I232(9) I233(7) I234(2)
 I235(11) I236(3) I237(9) I238(10) I239(9) I240(5) I241(5) I242(10) I243(7)
 I244(6) I245(2) I246(5) I247(4) I248(7) I249(10) I250(4) I251(5) I252(7)
 I253(7) I254(6) I255(16) I256(16) I257(1) I258(14) I259(5) I260(7) I261(4)
 I262(5) I263(2) I264(3) I265(2) I266(7) I267(3) I268(3) I269(2) I270(2)
 I271(3) I272(3) I273(8) I274(3) I275(9) I276(8) I277(3) I278(2) I279(6)
 I280(6) I281(6) I282(6) I283(5) I284(3) I285(5)
End
